tacasBenchmarks/factorization/in_cnf/factorization8.v_rsynth.cnf
c .nnodes 80
c .nvars 16
c .nsuppvars 16
c .ids  0 1 2 3 4 5 6 7 8 9 10 11 12 13 14 15 
c .cnfids  81 80 82 83 84 85 86 87 79 78 75 74 72 73 77 76 
c .nroots 1
c .rootids 2
p cnf 88 271
3 81 4 50 -54 0
3 -81 -4 50 -54 0
-3 -50 0
-3 81 -4 0
-3 54 0
-3 -81 4 0
4 -5 -45 0
4 5 45 0
-4 5 -45 0
-4 -5 45 0
5 6 34 0
-5 -6 0
-5 -34 0
6 -74 -79 -7 0
-6 74 0
-6 79 0
-6 7 0
7 -8 -32 0
7 8 32 0
-7 8 -32 0
-7 -8 32 0
8 9 19 0
-8 -9 0
-8 -19 0
9 -74 -78 -10 0
-9 74 0
-9 78 0
-9 10 0
10 11 -12 0
10 76 -11 12 0
10 74 -11 12 0
-10 11 12 0
-10 -11 -12 0
-10 -74 -76 12 0
11 -75 -77 0
-11 75 0
-11 77 0
12 13 16 0
-12 -13 0
-12 -16 0
13 14 15 0
-13 -14 0
-13 -15 0
14 -72 -73 -76 -77 0
-14 77 0
-14 72 0
-14 76 0
-14 73 0
15 -73 -74 -76 -77 0
-15 77 0
-15 73 0
-15 76 0
-15 74 0
16 -17 -18 0
16 17 18 0
-16 17 -18 0
-16 -17 18 0
17 -74 -77 0
-17 74 0
-17 77 0
18 -75 -76 0
-18 75 0
-18 76 0
19 20 -30 0
-19 -20 0
-19 30 0
20 21 23 0
-20 -21 0
-20 -23 0
21 -73 -78 -22 0
-21 73 0
-21 78 0
-21 22 0
22 13 -16 0
22 -13 16 0
-22 -13 -16 0
-22 13 16 0
23 -24 -28 0
-23 24 0
-23 28 0
24 -72 -78 -25 0
-24 72 0
-24 78 0
-24 25 0
25 -26 14 27 0
25 -26 -14 -27 0
25 26 14 -27 0
-25 26 -14 0
-25 26 27 0
-25 -14 27 0
-25 -26 14 -27 0
26 -74 -76 0
-26 74 0
-26 76 0
27 -73 -77 0
-27 73 0
-27 77 0
28 22 -29 0
28 -22 29 0
-28 -22 -29 0
-28 22 29 0
29 -73 -78 0
-29 73 0
-29 78 0
30 31 -10 0
30 -31 10 0
-30 -31 -10 0
-30 31 10 0
31 -74 -78 0
-31 74 0
-31 78 0
32 78 -33 0
32 -75 -78 33 0
-32 75 -78 0
-32 78 33 0
-32 -78 -33 0
33 -75 -77 -12 0
33 -75 -77 -26 0
-33 75 0
-33 77 0
-33 26 12 0
34 35 -43 0
-34 -35 0
-34 43 0
35 36 38 0
-35 -36 0
-35 -38 0
36 -73 -79 -37 0
-36 73 0
-36 79 0
-36 37 0
37 -20 -30 0
37 20 30 0
-37 20 -30 0
-37 -20 30 0
38 -39 -41 0
-38 39 0
-38 41 0
39 -72 -79 -40 0
-39 72 0
-39 79 0
-39 40 0
40 24 -28 0
40 -24 28 0
-40 -24 -28 0
-40 24 28 0
41 42 -37 0
41 -42 37 0
-41 -42 -37 0
-41 42 37 0
42 -73 -79 0
-42 73 0
-42 79 0
43 44 -7 0
43 -44 7 0
-43 -44 -7 0
-43 44 7 0
44 -74 -79 0
-44 74 0
-44 79 0
45 -46 -47 0
45 46 47 0
-45 46 -47 0
-45 -46 47 0
46 -75 -79 0
-46 75 0
-46 79 0
47 48 49 0
-47 -48 0
-47 -49 0
48 -78 -33 0
-48 78 0
-48 33 0
49 8 -32 0
-49 -8 0
-49 32 0
50 -80 -51 0
50 80 51 0
-50 80 -51 0
-50 -80 51 0
51 52 53 0
-51 -52 0
-51 -53 0
52 -75 -79 47 0
-52 75 0
-52 79 0
-52 -47 0
53 5 -45 0
-53 -5 0
-53 45 0
54 83 55 57 -58 0
54 -83 55 -57 -58 0
-54 58 0
-54 83 -57 0
-54 -55 0
-54 -83 57 0
55 82 -56 0
55 -82 56 0
-55 -82 -56 0
-55 82 56 0
56 -35 -43 0
56 35 43 0
-56 35 -43 0
-56 -35 43 0
57 39 -41 0
57 -39 41 0
-57 -39 -41 0
-57 39 41 0
58 -84 -59 -61 0
58 84 59 -61 0
-58 61 0
-58 -84 59 0
-58 84 -59 0
59 40 -60 0
59 -40 60 0
-59 -40 -60 0
-59 40 60 0
60 -72 -79 0
-60 72 0
-60 79 0
61 -85 -62 -64 0
61 85 62 -64 0
-61 64 0
-61 -85 62 0
-61 85 -62 0
62 63 -25 0
62 -63 25 0
-62 -63 -25 0
-62 63 25 0
63 -72 -78 0
-63 72 0
-63 78 0
64 86 65 68 -70 0
64 -86 -65 68 -70 0
-64 -68 0
-64 86 -65 0
-64 70 0
-64 -86 65 0
65 66 -67 0
65 -66 67 0
-65 -66 -67 0
-65 66 67 0
66 -73 -76 0
-66 73 0
-66 76 0
67 -72 -77 0
-67 72 0
-67 77 0
68 -72 -69 0
68 -72 -76 87 0
-68 72 0
-68 76 69 0
-68 -87 69 0
69 73 74 75 0
-69 -73 0
-69 -75 0
-69 -74 0
70 87 71 0
70 -72 -76 71 0
-70 -71 0
-70 76 -87 0
-70 72 -87 0
71 -76 77 78 79 0
-71 -79 0
-71 -78 0
-71 76 0
-71 -77 0
88 0
2 -3 0
-2 3 0
2 0

